
  18    0


   0   8 2 3 4 6 14 15 16 17 
  10   5 13 12 11 9 5 
   3   2 9 8 
   1   2 8 7 
   2   1 7 
   2   1 10 
   2   1 18
   9   1 18
   5   1 18
   4   1 18
   7   1 18
   4   1 18
   6   1 18
   3   1 18
   2   1 18
  10   1 18
  10   1 18
   0   0 
